NAME
ROWS
 N  OBJ
 G  c1
 G  c2
 G  c3
 G  c4
 G  c5
 G  c6
 G  c7
 G  c8
 G  c9
 G  c10
 G  c11
 G  c12
 G  c13
 G  c14
 G  c15
 G  c16
 G  c17
 G  c18
 G  c19
 G  c20
 G  c21
 G  c22
 G  c23
 G  c24
 G  c25
 G  c26
 G  c27
 G  c28
 G  c29
 G  c30
 G  c31
 G  c32
 G  c33
 G  c34
 G  c35
 G  c36
 G  c37
 G  c38
 G  c39
 G  c40
COLUMNS
    MARKER    'MARKER'                 'INTORG'
    x[1]      c1        1
    x[1]      c5        1
    x[1]      c6        1
    x[1]      c7        1
    x[1]      c32       1
    x[1]      c38       1
    x[1]      OBJ       1
    x[2]      c2        1
    x[2]      c6        1
    x[2]      c15       1
    x[2]      c17       1
    x[2]      c40       1
    x[2]      OBJ       1
    x[3]      c3        1
    x[3]      c34       1
    x[3]      OBJ       1
    x[4]      c4        1
    x[4]      c10       1
    x[4]      c13       1
    x[4]      c19       1
    x[4]      c26       1
    x[4]      c40       1
    x[4]      OBJ       1
    x[5]      c1        1
    x[5]      c5        1
    x[5]      c9        1
    x[5]      c10       1
    x[5]      c13       1
    x[5]      c17       1
    x[5]      c18       1
    x[5]      c29       1
    x[5]      OBJ       1
    x[6]      c1        1
    x[6]      c2        1
    x[6]      c6        1
    x[6]      c9        1
    x[6]      c35       1
    x[6]      OBJ       1
    x[7]      c1        1
    x[7]      c7        1
    x[7]      c9        1
    x[7]      c14       1
    x[7]      c15       1
    x[7]      c27       1
    x[7]      c34       1
    x[7]      OBJ       1
    x[8]      c8        1
    x[8]      c10       1
    x[8]      c36       1
    x[8]      c39       1
    x[8]      OBJ       1
    x[9]      c5        1
    x[9]      c6        1
    x[9]      c7        1
    x[9]      c9        1
    x[9]      c14       1
    x[9]      c17       1
    x[9]      c26       1
    x[9]      c39       1
    x[9]      OBJ       1
    x[10]     c4        1
    x[10]     c5        1
    x[10]     c8        1
    x[10]     c10       1
    x[10]     c13       1
    x[10]     c29       1
    x[10]     c40       1
    x[10]     OBJ       1
    x[11]     c11       1
    x[11]     c18       1
    x[11]     c26       1
    x[11]     c35       1
    x[11]     c40       1
    x[11]     OBJ       1
    x[12]     c12       1
    x[12]     c21       1
    x[12]     c22       1
    x[12]     c26       1
    x[12]     c31       1
    x[12]     OBJ       1
    x[13]     c4        1
    x[13]     c5        1
    x[13]     c10       1
    x[13]     c13       1
    x[13]     c22       1
    x[13]     c23       1
    x[13]     c40       1
    x[13]     OBJ       1
    x[14]     c7        1
    x[14]     c9        1
    x[14]     c14       1
    x[14]     c27       1
    x[14]     c32       1
    x[14]     c37       1
    x[14]     OBJ       1
    x[15]     c2        1
    x[15]     c7        1
    x[15]     c15       1
    x[15]     c21       1
    x[15]     c30       1
    x[15]     OBJ       1
    x[16]     c16       1
    x[16]     c37       1
    x[16]     OBJ       1
    x[17]     c2        1
    x[17]     c5        1
    x[17]     c9        1
    x[17]     c17       1
    x[17]     c18       1
    x[17]     OBJ       1
    x[18]     c5        1
    x[18]     c11       1
    x[18]     c17       1
    x[18]     c18       1
    x[18]     c36       1
    x[18]     OBJ       1
    x[19]     c4        1
    x[19]     c19       1
    x[19]     c34       1
    x[19]     c38       1
    x[19]     OBJ       1
    x[20]     c20       1
    x[20]     c22       1
    x[20]     c24       1
    x[20]     c28       1
    x[20]     c29       1
    x[20]     OBJ       1
    x[21]     c12       1
    x[21]     c15       1
    x[21]     c21       1
    x[21]     c24       1
    x[21]     c31       1
    x[21]     c33       1
    x[21]     OBJ       1
    x[22]     c12       1
    x[22]     c13       1
    x[22]     c20       1
    x[22]     c22       1
    x[22]     c27       1
    x[22]     c30       1
    x[22]     OBJ       1
    x[23]     c13       1
    x[23]     c23       1
    x[23]     c39       1
    x[23]     OBJ       1
    x[24]     c20       1
    x[24]     c21       1
    x[24]     c24       1
    x[24]     c35       1
    x[24]     OBJ       1
    x[25]     c25       1
    x[25]     OBJ       1
    x[26]     c4        1
    x[26]     c9        1
    x[26]     c11       1
    x[26]     c12       1
    x[26]     c26       1
    x[26]     OBJ       1
    x[27]     c7        1
    x[27]     c14       1
    x[27]     c22       1
    x[27]     c27       1
    x[27]     OBJ       1
    x[28]     c20       1
    x[28]     c28       1
    x[28]     c30       1
    x[28]     c31       1
    x[28]     OBJ       1
    x[29]     c5        1
    x[29]     c10       1
    x[29]     c20       1
    x[29]     c29       1
    x[29]     c34       1
    x[29]     c35       1
    x[29]     OBJ       1
    x[30]     c15       1
    x[30]     c22       1
    x[30]     c28       1
    x[30]     c30       1
    x[30]     OBJ       1
    x[31]     c12       1
    x[31]     c21       1
    x[31]     c28       1
    x[31]     c31       1
    x[31]     c35       1
    x[31]     OBJ       1
    x[32]     c1        1
    x[32]     c14       1
    x[32]     c32       1
    x[32]     OBJ       1
    x[33]     c21       1
    x[33]     c33       1
    x[33]     c35       1
    x[33]     c39       1
    x[33]     OBJ       1
    x[34]     c3        1
    x[34]     c7        1
    x[34]     c19       1
    x[34]     c29       1
    x[34]     c34       1
    x[34]     OBJ       1
    x[35]     c6        1
    x[35]     c11       1
    x[35]     c24       1
    x[35]     c29       1
    x[35]     c31       1
    x[35]     c33       1
    x[35]     c35       1
    x[35]     c37       1
    x[35]     OBJ       1
    x[36]     c8        1
    x[36]     c18       1
    x[36]     c36       1
    x[36]     OBJ       1
    x[37]     c14       1
    x[37]     c16       1
    x[37]     c35       1
    x[37]     c37       1
    x[37]     OBJ       1
    x[38]     c1        1
    x[38]     c19       1
    x[38]     c38       1
    x[38]     OBJ       1
    x[39]     c8        1
    x[39]     c9        1
    x[39]     c23       1
    x[39]     c33       1
    x[39]     c39       1
    x[39]     OBJ       1
    x[40]     c2        1
    x[40]     c4        1
    x[40]     c10       1
    x[40]     c11       1
    x[40]     c13       1
    x[40]     c40       1
    x[40]     OBJ       1
    MARKER    'MARKER'                 'INTEND'
RHS
    rhs       c1        1
    rhs       c2        1
    rhs       c3        1
    rhs       c4        1
    rhs       c5        1
    rhs       c6        1
    rhs       c7        1
    rhs       c8        1
    rhs       c9        1
    rhs       c10       1
    rhs       c11       1
    rhs       c12       1
    rhs       c13       1
    rhs       c14       1
    rhs       c15       1
    rhs       c16       1
    rhs       c17       1
    rhs       c18       1
    rhs       c19       1
    rhs       c20       1
    rhs       c21       1
    rhs       c22       1
    rhs       c23       1
    rhs       c24       1
    rhs       c25       1
    rhs       c26       1
    rhs       c27       1
    rhs       c28       1
    rhs       c29       1
    rhs       c30       1
    rhs       c31       1
    rhs       c32       1
    rhs       c33       1
    rhs       c34       1
    rhs       c35       1
    rhs       c36       1
    rhs       c37       1
    rhs       c38       1
    rhs       c39       1
    rhs       c40       1
RANGES
BOUNDS
 BV bounds    x[1]
 BV bounds    x[2]
 BV bounds    x[3]
 BV bounds    x[4]
 BV bounds    x[5]
 BV bounds    x[6]
 BV bounds    x[7]
 BV bounds    x[8]
 BV bounds    x[9]
 BV bounds    x[10]
 BV bounds    x[11]
 BV bounds    x[12]
 BV bounds    x[13]
 BV bounds    x[14]
 BV bounds    x[15]
 BV bounds    x[16]
 BV bounds    x[17]
 BV bounds    x[18]
 BV bounds    x[19]
 BV bounds    x[20]
 BV bounds    x[21]
 BV bounds    x[22]
 BV bounds    x[23]
 BV bounds    x[24]
 BV bounds    x[25]
 BV bounds    x[26]
 BV bounds    x[27]
 BV bounds    x[28]
 BV bounds    x[29]
 BV bounds    x[30]
 BV bounds    x[31]
 BV bounds    x[32]
 BV bounds    x[33]
 BV bounds    x[34]
 BV bounds    x[35]
 BV bounds    x[36]
 BV bounds    x[37]
 BV bounds    x[38]
 BV bounds    x[39]
 BV bounds    x[40]
ENDATA
